c Random generated cnf formula, satisfiable: true
p cnf 10 50
-1 -6 3 0
10 -8 -1 0
-1 3 6 0
9 -3 2 0
5 -8 -1 0
3 -6 5 0
7 -2 -6 0
-5 1 3 0
3 -6 1 0
-6 4 -2 0
7 -6 -2 0
-6 -5 9 0
3 9 6 0
-7 -10 -2 0
6 8 5 0
-6 4 2 0
-4 -2 -3 0
-9 5 2 0
6 -9 -4 0
10 -3 -6 0
5 -10 -6 0
-10 6 -7 0
10 1 -4 0
10 3 -5 0
-6 8 -4 0
7 -9 -4 0
8 -6 3 0
-4 9 2 0
10 -5 7 0
6 8 -1 0
7 1 -4 0
-9 7 -5 0
5 -8 7 0
-2 8 -7 0
-4 3 -6 0
-7 10 9 0
-8 -6 -1 0
6 1 2 0
3 8 4 0
4 -6 2 0
2 7 -3 0
-3 8 -7 0
-3 -10 -4 0
2 -3 8 0
8 -7 -1 0
-5 -10 8 0
-3 -2 -8 0
-3 7 2 0
4 1 -3 0
-1 10 -6 0
